31732810857131635645015,6,1,2,012,15,1,2,05,11,1,2,01,8,1,2,07,11,1,2,07,2,1,2,014,9,1,2,09,3,1,2,04,12,1,2,014,5,1,2,015,13,1,2,09,9,1,2,07,4,1,2,013,15,1,2,011,14,1,2,02,12,1,2,014,2,1,2,04,6,1,2,013,8,1,2,05,9,1,2,011,8,1,2,011,14,1,2,010,8,1,2,03,6,1,2,015,10,1,2,02,1,1,2,09,1,1,2,011,11,1,2,03,13,1,2,08,8,1,2,01,4,1,2,012,5,1,2,03,11,1,2,013,14,1,2,013,10,1,2,08,11,1,2,03,12,1,2,09,3,1,2,02,15,1,2,01,6,1,2,07,13,1,2,07,12,1,2,011,6,1,2,02,11,1,2,015,12,1,2,013,11,1,2,014,1,1,2,012,6,1,2,03,6,1,2,08,4,1,2,0